c Reduced graph for GEOM110b_0 generated by Cyril Grelier
p edge 103 1206
e 1 2
e 1 3
e 1 4
e 1 5
e 1 6
e 1 7
e 1 8
e 1 9
e 1 10
e 1 11
e 1 12
e 1 15
e 1 16
e 1 17
e 1 19
e 1 38
e 1 39
e 1 40
e 1 41
e 1 42
e 1 43
e 1 44
e 1 45
e 1 46
e 1 47
e 1 49
e 1 51
e 1 53
e 1 55
e 1 70
e 1 71
e 1 72
e 1 73
e 1 74
e 1 75
e 1 77
e 1 79
e 1 85
e 1 86
e 2 3
e 2 4
e 2 5
e 2 6
e 2 7
e 2 8
e 2 9
e 2 11
e 2 12
e 2 13
e 2 15
e 2 16
e 2 19
e 2 23
e 2 38
e 2 40
e 2 41
e 2 42
e 2 43
e 2 45
e 2 70
e 2 71
e 2 72
e 2 73
e 2 74
e 2 75
e 2 76
e 2 77
e 2 79
e 2 81
e 2 85
e 2 86
e 2 87
e 2 89
e 2 91
e 3 4
e 3 5
e 3 6
e 3 7
e 3 8
e 3 9
e 3 11
e 3 14
e 3 15
e 3 26
e 3 37
e 3 38
e 3 39
e 3 41
e 3 42
e 3 54
e 3 71
e 3 72
e 3 73
e 3 74
e 3 75
e 3 76
e 3 78
e 3 80
e 3 81
e 3 82
e 3 83
e 3 84
e 3 87
e 3 88
e 3 90
e 4 5
e 4 6
e 4 7
e 4 8
e 4 9
e 4 10
e 4 11
e 4 12
e 4 15
e 4 17
e 4 37
e 4 38
e 4 39
e 4 40
e 4 41
e 4 42
e 4 46
e 4 70
e 4 71
e 4 72
e 4 73
e 4 74
e 4 75
e 4 76
e 4 77
e 4 78
e 4 79
e 4 81
e 4 82
e 4 87
e 5 6
e 5 7
e 5 11
e 5 13
e 5 15
e 5 24
e 5 28
e 5 38
e 5 40
e 5 41
e 5 42
e 5 52
e 5 59
e 5 72
e 5 73
e 5 74
e 5 76
e 5 77
e 5 79
e 5 81
e 5 82
e 5 86
e 5 87
e 5 89
e 5 90
e 5 92
e 5 96
e 5 100
e 6 7
e 6 8
e 6 9
e 6 11
e 6 12
e 6 13
e 6 15
e 6 37
e 6 38
e 6 40
e 6 41
e 6 42
e 6 70
e 6 71
e 6 72
e 6 73
e 6 74
e 6 75
e 6 76
e 6 77
e 6 78
e 6 79
e 6 81
e 6 82
e 6 84
e 6 87
e 6 90
e 7 8
e 7 9
e 7 11
e 7 12
e 7 13
e 7 15
e 7 37
e 7 38
e 7 40
e 7 41
e 7 42
e 7 70
e 7 71
e 7 72
e 7 73
e 7 74
e 7 75
e 7 76
e 7 77
e 7 78
e 7 79
e 7 81
e 7 82
e 7 84
e 7 87
e 7 90
e 8 9
e 8 11
e 8 14
e 8 15
e 8 17
e 8 18
e 8 27
e 8 37
e 8 39
e 8 41
e 8 42
e 8 46
e 8 48
e 8 50
e 8 70
e 8 71
e 8 73
e 8 74
e 8 75
e 8 78
e 8 80
e 8 82
e 8 83
e 8 87
e 8 88
e 9 10
e 9 11
e 9 14
e 9 15
e 9 17
e 9 27
e 9 37
e 9 39
e 9 41
e 9 42
e 9 46
e 9 48
e 9 55
e 9 60
e 9 64
e 9 70
e 9 71
e 9 73
e 9 74
e 9 75
e 9 78
e 9 80
e 9 88
e 10 12
e 10 16
e 10 17
e 10 27
e 10 39
e 10 43
e 10 44
e 10 45
e 10 46
e 10 47
e 10 49
e 10 55
e 10 57
e 10 62
e 10 64
e 10 65
e 10 67
e 10 70
e 10 71
e 10 73
e 10 75
e 10 85
e 10 94
e 10 95
e 10 98
e 10 99
e 10 101
e 11 13
e 11 15
e 11 26
e 11 38
e 11 40
e 11 41
e 11 42
e 11 54
e 11 71
e 11 72
e 11 73
e 11 74
e 11 76
e 11 79
e 11 81
e 11 82
e 11 83
e 11 84
e 11 87
e 11 90
e 11 96
e 12 16
e 12 17
e 12 19
e 12 23
e 12 38
e 12 43
e 12 44
e 12 45
e 12 46
e 12 47
e 12 49
e 12 51
e 12 53
e 12 57
e 12 70
e 12 71
e 12 73
e 12 77
e 12 85
e 12 86
e 12 94
e 12 95
e 12 98
e 12 99
e 13 15
e 13 23
e 13 24
e 13 28
e 13 33
e 13 35
e 13 38
e 13 40
e 13 52
e 13 59
e 13 63
e 13 68
e 13 72
e 13 74
e 13 76
e 13 77
e 13 79
e 13 81
e 13 86
e 13 89
e 13 91
e 13 92
e 13 96
e 13 100
e 13 103
e 14 18
e 14 20
e 14 21
e 14 22
e 14 25
e 14 26
e 14 29
e 14 30
e 14 37
e 14 39
e 14 41
e 14 42
e 14 48
e 14 50
e 14 56
e 14 58
e 14 60
e 14 61
e 14 75
e 14 78
e 14 80
e 14 82
e 14 83
e 14 84
e 14 88
e 14 93
e 14 97
e 15 38
e 15 40
e 15 41
e 15 42
e 15 54
e 15 71
e 15 72
e 15 73
e 15 74
e 15 76
e 15 79
e 15 81
e 15 82
e 15 83
e 15 84
e 15 87
e 15 90
e 15 96
e 16 19
e 16 23
e 16 38
e 16 40
e 16 43
e 16 44
e 16 45
e 16 47
e 16 51
e 16 53
e 16 57
e 16 70
e 16 71
e 16 77
e 16 85
e 16 86
e 16 89
e 16 91
e 16 92
e 16 95
e 16 98
e 16 99
e 17 27
e 17 39
e 17 43
e 17 44
e 17 46
e 17 47
e 17 48
e 17 49
e 17 55
e 17 62
e 17 64
e 17 65
e 17 66
e 17 70
e 17 71
e 17 73
e 17 75
e 17 78
e 17 94
e 18 20
e 18 21
e 18 22
e 18 25
e 18 29
e 18 30
e 18 34
e 18 37
e 18 39
e 18 48
e 18 50
e 18 56
e 18 58
e 18 60
e 18 61
e 18 78
e 18 80
e 18 83
e 18 88
e 18 93
e 18 97
e 19 23
e 19 38
e 19 40
e 19 43
e 19 44
e 19 45
e 19 47
e 19 51
e 19 53
e 19 70
e 19 77
e 19 79
e 19 85
e 19 86
e 19 89
e 19 91
e 19 92
e 19 95
e 19 98
e 20 21
e 20 22
e 20 25
e 20 26
e 20 30
e 20 32
e 20 34
e 20 37
e 20 50
e 20 54
e 20 56
e 20 58
e 20 61
e 20 80
e 20 82
e 20 83
e 20 84
e 20 90
e 20 93
e 20 97
e 20 102
e 21 22
e 21 25
e 21 26
e 21 31
e 21 32
e 21 34
e 21 37
e 21 50
e 21 54
e 21 56
e 21 61
e 21 80
e 21 82
e 21 83
e 21 84
e 21 87
e 21 90
e 21 93
e 21 102
e 22 25
e 22 26
e 22 30
e 22 32
e 22 34
e 22 37
e 22 50
e 22 56
e 22 58
e 22 61
e 22 80
e 22 82
e 22 83
e 22 84
e 22 88
e 22 93
e 22 97
e 22 102
e 23 38
e 23 40
e 23 43
e 23 45
e 23 47
e 23 51
e 23 53
e 23 70
e 23 77
e 23 79
e 23 85
e 23 86
e 23 89
e 23 91
e 23 92
e 23 95
e 23 98
e 24 28
e 24 33
e 24 35
e 24 38
e 24 40
e 24 52
e 24 59
e 24 63
e 24 68
e 24 72
e 24 76
e 24 77
e 24 79
e 24 89
e 24 91
e 24 92
e 24 96
e 24 100
e 24 103
e 25 26
e 25 30
e 25 32
e 25 34
e 25 37
e 25 50
e 25 56
e 25 58
e 25 61
e 25 80
e 25 83
e 25 84
e 25 93
e 25 97
e 25 102
e 26 31
e 26 32
e 26 34
e 26 37
e 26 54
e 26 82
e 26 83
e 26 84
e 26 87
e 26 90
e 26 93
e 26 102
e 27 29
e 27 37
e 27 39
e 27 46
e 27 48
e 27 49
e 27 55
e 27 60
e 27 64
e 27 65
e 27 66
e 27 75
e 27 78
e 27 80
e 27 88
e 28 35
e 28 38
e 28 40
e 28 52
e 28 59
e 28 63
e 28 68
e 28 69
e 28 72
e 28 74
e 28 76
e 28 79
e 28 81
e 28 96
e 28 100
e 29 30
e 29 37
e 29 39
e 29 48
e 29 50
e 29 56
e 29 58
e 29 60
e 29 66
e 29 75
e 29 78
e 29 80
e 29 88
e 29 97
e 30 37
e 30 48
e 30 50
e 30 56
e 30 58
e 30 60
e 30 61
e 30 80
e 30 88
e 30 97
e 31 32
e 31 36
e 31 54
e 31 69
e 31 81
e 31 82
e 31 83
e 31 84
e 31 87
e 31 90
e 31 96
e 31 102
e 32 34
e 32 54
e 32 61
e 32 83
e 32 84
e 32 93
e 32 102
e 33 35
e 33 52
e 33 59
e 33 63
e 33 68
e 33 89
e 33 91
e 33 92
e 33 100
e 33 103
e 34 61
e 34 83
e 34 84
e 34 93
e 34 102
e 35 52
e 35 59
e 35 63
e 35 68
e 35 100
e 35 103
e 36 54
e 36 69
e 36 96
e 37 39
e 37 41
e 37 42
e 37 48
e 37 50
e 37 56
e 37 58
e 37 60
e 37 61
e 37 73
e 37 75
e 37 78
e 37 80
e 37 82
e 37 83
e 37 84
e 37 88
e 37 93
e 37 97
e 38 40
e 38 45
e 38 51
e 38 52
e 38 53
e 38 70
e 38 71
e 38 72
e 38 73
e 38 74
e 38 76
e 38 77
e 38 79
e 38 81
e 38 85
e 38 86
e 38 89
e 38 91
e 38 92
e 39 41
e 39 42
e 39 46
e 39 48
e 39 49
e 39 50
e 39 55
e 39 58
e 39 60
e 39 64
e 39 65
e 39 66
e 39 71
e 39 73
e 39 75
e 39 78
e 39 80
e 39 88
e 39 97
e 40 52
e 40 59
e 40 63
e 40 72
e 40 73
e 40 74
e 40 76
e 40 77
e 40 79
e 40 81
e 40 86
e 40 89
e 40 91
e 40 92
e 40 100
e 41 42
e 41 70
e 41 71
e 41 72
e 41 73
e 41 74
e 41 75
e 41 78
e 41 80
e 41 81
e 41 82
e 41 83
e 41 84
e 41 87
e 41 88
e 41 90
e 42 70
e 42 71
e 42 72
e 42 73
e 42 74
e 42 75
e 42 78
e 42 80
e 42 81
e 42 82
e 42 83
e 42 84
e 42 87
e 42 88
e 42 90
e 43 44
e 43 45
e 43 46
e 43 47
e 43 49
e 43 51
e 43 53
e 43 55
e 43 57
e 43 62
e 43 64
e 43 65
e 43 67
e 43 70
e 43 71
e 43 85
e 43 94
e 43 95
e 43 98
e 43 99
e 43 101
e 44 45
e 44 46
e 44 47
e 44 49
e 44 51
e 44 53
e 44 55
e 44 57
e 44 62
e 44 64
e 44 65
e 44 67
e 44 70
e 44 71
e 44 85
e 44 94
e 44 95
e 44 98
e 44 99
e 44 101
e 45 47
e 45 51
e 45 53
e 45 57
e 45 67
e 45 70
e 45 71
e 45 77
e 45 85
e 45 86
e 45 89
e 45 91
e 45 95
e 45 98
e 45 99
e 46 47
e 46 48
e 46 49
e 46 55
e 46 64
e 46 65
e 46 66
e 46 70
e 46 71
e 46 73
e 46 75
e 46 78
e 46 88
e 46 94
e 47 49
e 47 51
e 47 53
e 47 57
e 47 62
e 47 67
e 47 70
e 47 71
e 47 85
e 47 94
e 47 95
e 47 98
e 47 99
e 47 101
e 48 50
e 48 55
e 48 56
e 48 58
e 48 60
e 48 64
e 48 66
e 48 75
e 48 78
e 48 80
e 48 88
e 48 97
e 49 55
e 49 57
e 49 62
e 49 64
e 49 65
e 49 66
e 49 67
e 49 70
e 49 71
e 49 75
e 49 94
e 49 99
e 49 101
e 50 56
e 50 58
e 50 60
e 50 61
e 50 78
e 50 80
e 50 83
e 50 88
e 50 93
e 50 97
e 51 53
e 51 57
e 51 70
e 51 77
e 51 85
e 51 86
e 51 89
e 51 91
e 51 92
e 51 95
e 51 98
e 51 99
e 52 59
e 52 63
e 52 68
e 52 72
e 52 76
e 52 77
e 52 79
e 52 86
e 52 89
e 52 91
e 52 92
e 52 100
e 52 103
e 53 57
e 53 70
e 53 77
e 53 85
e 53 86
e 53 89
e 53 91
e 53 95
e 53 98
e 53 99
e 54 69
e 54 74
e 54 81
e 54 82
e 54 83
e 54 84
e 54 87
e 54 90
e 54 93
e 54 96
e 54 102
e 55 62
e 55 64
e 55 65
e 55 66
e 55 70
e 55 71
e 55 75
e 55 78
e 55 94
e 56 58
e 56 60
e 56 61
e 56 78
e 56 80
e 56 88
e 56 93
e 56 97
e 57 62
e 57 67
e 57 70
e 57 85
e 57 94
e 57 95
e 57 98
e 57 99
e 57 101
e 58 60
e 58 61
e 58 78
e 58 80
e 58 88
e 58 97
e 59 63
e 59 68
e 59 69
e 59 72
e 59 76
e 59 79
e 59 81
e 59 96
e 59 100
e 59 103
e 60 66
e 60 75
e 60 78
e 60 80
e 60 88
e 60 97
e 61 80
e 61 93
e 61 97
e 61 102
e 62 64
e 62 65
e 62 67
e 62 85
e 62 94
e 62 95
e 62 98
e 62 99
e 62 101
e 63 68
e 63 76
e 63 79
e 63 89
e 63 91
e 63 92
e 63 100
e 63 103
e 64 65
e 64 66
e 64 75
e 64 94
e 65 66
e 65 70
e 65 75
e 65 94
e 65 101
e 66 75
e 66 78
e 66 80
e 66 88
e 67 85
e 67 94
e 67 95
e 67 98
e 67 99
e 67 101
e 68 76
e 68 92
e 68 100
e 68 103
e 69 81
e 69 87
e 69 90
e 69 96
e 70 71
e 70 73
e 70 75
e 70 77
e 70 85
e 70 86
e 70 94
e 70 95
e 71 72
e 71 73
e 71 74
e 71 75
e 71 77
e 71 78
e 71 85
e 71 86
e 72 73
e 72 74
e 72 76
e 72 77
e 72 79
e 72 81
e 72 82
e 72 86
e 72 87
e 72 89
e 72 90
e 72 91
e 72 92
e 72 96
e 72 100
e 73 74
e 73 75
e 73 76
e 73 77
e 73 78
e 73 79
e 73 81
e 73 86
e 73 87
e 74 76
e 74 77
e 74 79
e 74 81
e 74 82
e 74 84
e 74 86
e 74 87
e 74 90
e 74 96
e 75 78
e 75 80
e 75 88
e 76 77
e 76 79
e 76 81
e 76 86
e 76 87
e 76 89
e 76 91
e 76 92
e 76 96
e 76 100
e 77 79
e 77 85
e 77 86
e 77 89
e 77 91
e 77 92
e 78 80
e 78 88
e 78 97
e 79 81
e 79 86
e 79 89
e 79 91
e 79 92
e 79 100
e 80 83
e 80 88
e 80 93
e 80 97
e 81 82
e 81 83
e 81 84
e 81 87
e 81 90
e 81 96
e 82 83
e 82 84
e 82 87
e 82 90
e 82 93
e 82 96
e 83 84
e 83 87
e 83 90
e 83 93
e 83 102
e 84 87
e 84 90
e 84 93
e 84 102
e 85 86
e 85 89
e 85 94
e 85 95
e 85 98
e 85 99
e 86 89
e 86 91
e 86 92
e 87 90
e 87 96
e 88 97
e 89 91
e 89 92
e 89 103
e 90 93
e 90 96
e 91 92
e 91 103
e 92 103
e 93 97
e 93 102
e 94 95
e 94 98
e 94 99
e 94 101
e 95 98
e 95 99
e 95 101
e 96 100
e 98 99
e 98 101
e 99 101
e 100 103
